n = 10; 

m=12; 


53	19	99	62	88	93	34	72	42	65
93	79	88	77	94	39	74	46	17	30
90	92	35	13	75	55	80	67	3	93
65	97	27	25	61	24	97	61	75	92
90	63	85	36	69	67	81	18	81	72
19	36	54	75	7	5	82	20	31	32
18	1	61	67	55	72	16	12	87	21
85	81	9	52	67	77	45	7	21	26
44	66	31	8	79	42	85	92	89	29
27	7	7	54	31	94	25	8	61	51
24	82	69	82	39	52	85	48	22	57
90	63	85	36	69	67	81	18	81	72


